4 176 123 52 59 43 92 3 121 122 70 187 38 72 14 171 136 83 40 146 78 180 12 178 87 164 23 26 179 119 137 51 7 65 37 185 148 33 80 129 174 0 49 168 125 199 155 161 93 31 104 96 166 97 169 48 152 69 138 139 16 89 88 10 167 109 22 41 172 184 21 192 110 102 57 127 28 190 196 198 107 128 35 175 158 74 66 131 197 6 170 60 111 73 194 100 189 120 45 145 124 108 133 68 157 183 106 156 193 79 75 126 160 134 71 56 30 77 98 44 165 32 67 13 173 64 159 85 95 151 15 62 153 53 90 76 42 154 63 149 58 5 39 82 2 115 101 8 9 141 19 24 163 113 17 84 142 188 186 81 182 103 105 132 114 11 27 46 181 20 55 150 94 147 130 162 25 86 112 54 177 116 91 140 47 143 29 99 1 191 50 118 34 61 36 195 18 135 144 117